&CONTROL
     calculation = 'scf' ,
    restart_mode = 'from_scratch' ,
          outdir = '/home/fzendrato/zno/pure/u/dos',
      pseudo_dir = '/home/fzendrato/pp',
          prefix = 'ZnO' ,
   etot_conv_thr = 1.0D-6 ,
   forc_conv_thr = 1.0D-4 ,
/
&SYSTEM
    ibrav        = 4
    a            = 3.197717231
    c            = 5.124756153
    nat          = 4
    ntyp         = 2
    occupations  = "smearing"
    smearing     = "gaussian"
    degauss      = 1.00000e-02
    ecutwfc      = 60
    ecutrho      = 600
    nbnd         = 63
    nspin        = 2
    starting_magnetization(1) = 0.5
    lda_plus_u   = .true.
    Hubbard_U(1) = 10
    Hubbard_U(2) = 7 
/
&ELECTRONS
    conv_thr         = 1.00000e-08
    mixing_beta      = 2.00000e-01
/
ATOMIC_SPECIES
Zn     65.39000  Zn_ONCV_PBE_sr.upf
O      15.99940  O_ONCV_PBE_sr.upf

ATOMIC_POSITIONS (crystal)
Zn            0.3333340000        0.6666670000       -0.0004513342
Zn            0.6666670000        0.3333340000        0.4995486658
O             0.3333340000        0.6666670000        0.3807613342
O             0.6666670000        0.3333340000        0.8807613342

K_POINTS {automatic}
 10  10  6  0 0 0
